31662858836983397075013,7,1,2,014,1,1,2,012,14,1,2,07,6,1,2,013,5,1,2,06,3,1,2,010,7,1,2,09,11,1,2,02,1,1,2,06,1,1,2,08,12,1,2,011,1,1,2,08,2,1,2,07,3,1,2,08,14,1,2,04,5,1,2,012,1,1,2,08,10,1,2,09,1,1,2,08,1,1,2,011,5,1,2,05,2,1,2,013,6,1,2,01,11,1,2,08,1,1,2,01,15,1,2,013,12,1,2,08,14,1,2,02,6,1,2,012,13,1,2,014,1,1,2,015,5,1,2,011,12,1,2,04,1,1,2,02,1,1,2,07,5,1,2,015,13,1,2,03,7,1,2,09,7,1,2,011,13,1,2,010,7,1,2,015,14,1,2,09,9,1,2,010,9,1,2,08,3,1,2,05,4,1,2,09,7,1,2,05,1,1,2,05,8,1,2,011,9,1,2,0